p edge 335 334
e 1 263
e 1 307
e 2 248
e 2 195
e 2 200
e 3 328
e 4 77
e 4 113
e 4 37
e 5 58
e 6 238
e 6 59
e 7 13
e 8 277
e 8 48
e 9 141
e 10 251
e 10 58
e 11 294
e 11 302
e 12 126
e 13 115
e 14 60
e 14 288
e 15 72
e 16 40
e 16 48
e 17 38
e 17 181
e 17 306
e 17 170
e 18 53
e 19 280
e 20 45
e 21 305
e 21 318
e 22 303
e 23 114
e 23 236
e 24 146
e 24 117
e 25 47
e 25 57
e 26 51
e 26 332
e 26 300
e 27 217
e 28 240
e 28 335
e 29 167
e 29 118
e 30 267
e 30 112
e 30 331
e 30 81
e 30 261
e 31 303
e 31 206
e 31 85
e 32 320
e 32 278
e 32 161
e 33 229
e 33 116
e 33 174
e 34 138
e 34 109
e 35 118
e 35 334
e 35 121
e 36 145
e 36 274
e 36 96
e 36 305
e 37 168
e 37 170
e 37 264
e 39 128
e 39 227
e 41 130
e 41 148
e 41 270
e 41 44
e 42 261
e 42 318
e 42 215
e 43 112
e 44 249
e 45 120
e 46 259
e 47 222
e 48 53
e 48 122
e 49 315
e 49 50
e 50 101
e 50 221
e 51 319
e 51 282
e 52 120
e 52 195
e 53 97
e 54 309
e 55 254
e 55 321
e 56 174
e 56 128
e 57 79
e 58 175
e 58 186
e 59 275
e 61 102
e 62 232
e 62 207
e 62 292
e 63 333
e 64 119
e 64 194
e 65 273
e 65 66
e 66 244
e 67 280
e 68 311
e 68 203
e 68 335
e 69 215
e 70 113
e 71 219
e 71 261
e 72 199
e 72 230
e 72 217
e 73 230
e 74 197
e 74 136
e 75 302
e 76 143
e 78 82
e 79 102
e 79 192
e 80 91
e 80 250
e 80 98
e 81 223
e 81 272
e 82 226
e 82 217
e 83 260
e 83 277
e 84 157
e 84 126
e 84 237
e 85 279
e 85 195
e 86 122
e 86 209
e 87 217
e 88 172
e 88 274
e 89 175
e 90 143
e 92 253
e 92 260
e 93 111
e 94 325
e 94 143
e 95 173
e 96 333
e 98 314
e 98 99
e 98 152
e 99 144
e 99 323
e 100 195
e 102 259
e 103 287
e 103 160
e 104 184
e 105 134
e 105 161
e 106 177
e 107 310
e 108 164
e 108 137
e 109 189
e 109 286
e 109 277
e 110 309
e 110 247
e 110 206
e 111 136
e 112 152
e 113 179
e 113 218
e 113 301
e 115 275
e 116 291
e 117 149
e 118 284
e 118 304
e 120 149
e 121 207
e 122 264
e 123 158
e 123 161
e 123 136
e 124 269
e 124 291
e 125 313
e 125 243
e 126 173
e 127 201
e 127 289
e 127 292
e 127 297
e 128 237
e 129 236
e 129 284
e 131 283
e 132 151
e 133 322
e 134 162
e 135 208
e 135 252
e 135 257
e 136 280
e 136 200
e 136 203
e 137 239
e 137 329
e 138 185
e 139 177
e 139 328
e 140 317
e 141 186
e 142 296
e 143 150
e 143 307
e 143 237
e 147 233
e 147 217
e 151 242
e 151 223
e 153 255
e 153 328
e 154 233
e 155 326
e 156 187
e 158 186
e 159 190
e 160 205
e 162 183
e 162 188
e 162 268
e 163 182
e 165 332
e 166 266
e 166 251
e 167 180
e 169 312
e 171 326
e 174 322
e 175 241
e 176 195
e 178 286
e 182 221
e 182 217
e 184 206
e 186 216
e 187 291
e 190 256
e 191 203
e 192 288
e 192 225
e 193 330
e 194 235
e 196 198
e 196 306
e 198 231
e 202 288
e 204 276
e 205 214
e 205 333
e 207 321
e 209 243
e 209 249
e 210 300
e 211 316
e 211 240
e 212 220
e 213 299
e 215 299
e 217 283
e 217 285
e 220 253
e 224 322
e 225 265
e 227 282
e 228 306
e 230 275
e 232 265
e 233 246
e 233 328
e 234 240
e 235 271
e 243 296
e 244 282
e 245 300
e 245 258
e 247 249
e 249 308
e 250 285
e 256 260
e 257 312
e 258 272
e 262 272
e 268 290
e 271 281
e 271 311
e 273 276
e 275 324
e 277 310
e 277 327
e 278 330
e 284 295
e 290 299
e 293 312
e 293 296
e 297 329
e 297 305
e 298 302
e 302 324
e 317 331
e 326 334
